
  22    4
  10   10   10   10

   0   0   0   0   0   9 2 4 6 7 8 11 12 14 21 
   6  10  10  10  10   1 3 
   5  10  10  10  10   6 20 19 17 13 10 9 
   2  10  10  10  10   3 20 9 5 
   9  10  10  10  10   4 17 16 13 10 
   3  10  10  10  10   5 19 18 17 16 15 
   6  10  10  10  10   4 19 17 16 15 
  10  10  10  10  10   2 13 9 
   8  10  10  10  10   2 16 15 
   9  10  10  10  10   2 18 15 
   8  10  10  10  10   2 20 15 
   8  10  10  10  10   2 16 15 
   4  10  10  10  10   1 15 
   2  10  10  10  10   1 19 
   1  10  10  10  10   1 22
   4  10  10  10  10   1 22
   4  10  10  10  10   1 22
   9  10  10  10  10   1 22
   8  10  10  10  10   1 22
   7  10  10  10  10   1 22
   4  10  10  10  10   1 22
   0   0   0   0   0   0 
